DIMENSION :13
NODE_COORD_SECTION
1 -23.578206136545333 21.582947084509414
2 -78.31979484668867 19.692948880408707
3 76.47419891118977 -86.87385965485853
4 70.9248475521133 63.95290436507702
5 81.00285018056309 29.321488724272257
6 15.33415545472198 -1.9348683409164522
7 32.22763639810634 -37.17923599422426
8 38.68668677078492 73.03106518529071
9 -12.571781637721841 -28.56170774606754
10 23.153666100048056 -19.09069151912655
11 -94.77629607457585 0.9460576486426788
12 -14.166821898888713 5.9483370738899595
13 1.7415472594193062 -37.255011623402744
EOF
